; benchmark generated from python API
(set-info :status unknown)
(declare-datatypes ((RealState 0)) (((RMk1 (rval1 Real)) (RMk2 (rval2 Real)))))
 (assert
 (forall ((|v17:0| Real) )(forall ((|v16:1| Real) )(forall ((|v15:2| Real) )(forall ((|v14:3| Real) )(forall ((|v13:4| Real) )(forall ((|v12:5| Real) )(exists ((|v11:6_st| RealState) (val!7134 Real) )(exists ((|v10:7_st| RealState) (val!7135 Real) )(exists ((|v9:8_st| RealState) (val!7136 Real) )(exists ((|v8:9_st| RealState) (val!7137 Real) )(exists ((|v7:10_st| RealState) (val!7138 Real) )(exists ((|v6:11_st| RealState) (val!7139 Real) )(forall ((|v5:12| Real) )(forall ((|v4:13| Real) )(forall ((|v3:14| Real) )(forall ((|v2:15| Real) )(forall ((|v1:16| Real) )(forall ((|v0:17| Real) )(let ((?x2834 (- 19.0)))
 (let ((?x2197 (* ?x2834 |v3:14|)))
 (let ((?x690 (+ (+ (+ (* 7.0 (rval2 |v6:11_st|)) (* 7.0 |v5:12|)) (* 19.0 |v12:5|)) ?x2197)))
 (let ((?x2252 (+ (+ (+ (* 18.0 |v14:3|) (* 7.0 |v16:1|)) (* (- 18.0) |v1:16|)) (* (- 17.0) |v16:1|))))
 (let ((?x2849 (+ (+ (* 3.0 (rval2 |v11:6_st|)) (* (- 20.0) (rval2 |v9:8_st|))) (* 15.0 (rval2 |v8:9_st|)))))
 (let ((?x2313 (- 10.0)))
 (let ((?x3102 (* 0.0 |v4:13|)))
 (let ((?x571 (+ (+ (* 17.0 (rval2 |v6:11_st|)) (* (- 1.0) |v3:14|)) (* (- 5.0) |v16:1|))))
 (let (($x2473 (and (<= (+ ?x571 ?x3102) ?x2313) (<= (+ ?x2849 (* (- 16.0) (rval2 |v8:9_st|))) 14.0))))
 (let ((?x3213 (- 2.0)))
 (let ((?x2555 (- 4.0)))
 (let ((?x2527 (* ?x2555 |v3:14|)))
 (let ((?x2611 (+ (+ (+ (* (- 6.0) (rval2 |v6:11_st|)) (* (- 5.0) |v5:12|)) ?x2527) (* 7.0 |v17:0|))))
 (let ((?x651 (rval2 |v11:6_st|)))
 (let ((?x1242 (* 20.0 ?x651)))
 (let ((?x687 (+ (+ (+ (* 11.0 |v13:4|) (* 16.0 (rval2 |v7:10_st|))) (* (- 11.0) |v16:1|)) ?x1242)))
 (let ((?x1415 (rval2 |v6:11_st|)))
 (let ((?x580 (* 17.0 ?x1415)))
 (let ((?x216 (+ (+ (* 0.0 (rval2 |v8:9_st|)) (* 18.0 |v0:17|)) (* (- 20.0) (rval2 |v7:10_st|)))))
 (let ((?x230 (+ (+ (+ (* 2.0 (rval2 |v7:10_st|)) (* 19.0 ?x1415)) (* (- 3.0) |v2:15|)) (* 2.0 |v15:2|))))
 (let (($x1468 (or (or (<= ?x230 2.0) (<= (+ ?x216 ?x580) 3.0)) (and (<= ?x687 17.0) (<= ?x2611 ?x3213)))))
 (let ((?x473 (rval2 |v8:9_st|)))
 (let ((?x2304 (- 17.0)))
 (let ((?x501 (* ?x2304 ?x473)))
 (let ((?x1580 (+ (+ (+ (* 12.0 (rval2 |v10:7_st|)) (* 14.0 |v0:17|)) (* 2.0 |v16:1|)) ?x501)))
 (let ((?x1303 (* 7.0 |v4:13|)))
 (let ((?x1844 (+ (+ (+ (* (- 14.0) |v4:13|) (* 12.0 |v0:17|)) (* 17.0 ?x651)) ?x1303)))
 (let ((?x1680 (- 6.0)))
 (let ((?x126 (* 18.0 |v3:14|)))
 (let ((?x1666 (+ (+ (+ (* 14.0 (rval2 |v7:10_st|)) (* (- 11.0) |v17:0|)) (* 9.0 ?x473)) ?x126)))
 (let ((?x1745 (* 4.0 ?x1415)))
 (let ((?x54 (+ (+ (+ (* 3.0 |v13:4|) (* (- 13.0) |v4:13|)) (* 15.0 |v14:3|)) ?x1745)))
 (let (($x1437 (or (or (<= ?x54 13.0) (<= ?x1666 ?x1680)) (or (<= ?x1844 16.0) (<= ?x1580 16.0)))))
 (let ((?x319 (+ (+ (+ (* 12.0 |v0:17|) (* ?x2555 |v4:13|)) (* 15.0 |v1:16|)) (* (- 5.0) |v4:13|))))
 (let (($x1148 (<= ?x319 16.0)))
 (let ((?x1764 (* 11.0 |v5:12|)))
 (let ((?x2740 (+ (+ (+ (* (- 3.0) (rval2 |v9:8_st|)) (* 15.0 |v15:2|)) (* 7.0 |v15:2|)) ?x1764)))
 (let ((?x3133 (- 5.0)))
 (let ((?x692 (rval2 |v9:8_st|)))
 (let ((?x3468 (* 16.0 ?x692)))
 (let (($x927 (<= (+ (+ (+ (* (- 14.0) ?x1415) (* 3.0 |v5:12|)) ?x1303) ?x3468) ?x3133)))
 (let (($x1827 (<= (+ (+ (+ (* 14.0 |v5:12|) (* ?x2313 |v1:16|)) ?x501) (* ?x2304 |v12:5|)) 14.0)))
 (let (($x3462 (or (and (or (and $x1827 $x927) (or (<= ?x2740 13.0) $x1148)) $x1437) (or $x1468 (and $x2473 (or (<= ?x2252 18.0) (<= ?x690 14.0)))))))
 (let ((?x846 (+ (+ (+ (* 17.0 |v0:17|) ?x1303) (* (- 12.0) ?x692)) (* ?x2555 (rval2 |v7:10_st|)))))
 (let ((?x2517 (- 11.0)))
 (let ((?x1803 (+ (+ (+ (* (- 15.0) |v17:0|) (* 16.0 |v1:16|)) (* 12.0 |v14:3|)) (* ?x2304 |v15:2|))))
 (let ((?x1080 (+ (+ (+ (* 5.0 |v12:5|) (* 11.0 ?x473)) (* 16.0 |v13:4|)) (* (- 3.0) |v12:5|))))
 (let ((?x2451 (+ (+ (+ (* (- 7.0) |v2:15|) (* (- 7.0) ?x692)) (* 4.0 ?x651)) (* 6.0 ?x651))))
 (let (($x1360 (or (and (<= ?x2451 2.0) (<= ?x1080 ?x1680)) (and (<= ?x1803 ?x2517) (<= ?x846 17.0)))))
 (let ((?x3424 (* 20.0 |v5:12|)))
 (let ((?x2155 (+ (+ (+ (* (- 9.0) |v4:13|) (* 13.0 |v12:5|)) (* 9.0 |v15:2|)) ?x3424)))
 (let ((?x194 (- 8.0)))
 (let ((?x2163 (rval2 |v7:10_st|)))
 (let ((?x668 (* 20.0 ?x2163)))
 (let ((?x2340 (+ (+ (+ (* ?x2555 |v15:2|) (* (- 18.0) (rval2 |v10:7_st|))) (* ?x194 ?x1415)) ?x668)))
 (let ((?x2870 (- 12.0)))
 (let ((?x3119 (* 4.0 ?x651)))
 (let ((?x2073 (+ (+ (* 3.0 |v2:15|) (* 20.0 |v3:14|)) (* 8.0 |v3:14|))))
 (let ((?x3055 (* 16.0 |v0:17|)))
 (let ((?x275 (+ (+ (+ (* (- 3.0) |v14:3|) (* ?x3213 ?x1415)) (* (- 1.0) |v13:4|)) ?x3055)))
 (let (($x1260 (and (or (<= ?x275 ?x194) (<= (+ ?x2073 ?x3119) ?x2870)) (or (<= ?x2340 ?x194) (<= ?x2155 16.0)))))
 (let ((?x8 (- 15.0)))
 (let ((?x1188 (* ?x2834 |v4:13|)))
 (let (($x948 (<= (+ (+ (+ (* 16.0 |v5:12|) (* 6.0 |v0:17|)) (* 15.0 ?x651)) ?x1188) ?x8)))
 (let ((?x344 (+ (+ (+ (* 13.0 |v4:13|) (* (- 14.0) ?x692)) (* ?x1680 ?x1415)) (* 8.0 |v15:2|))))
 (let (($x3233 (<= (+ (+ (+ |v13:4| (* ?x3133 |v13:4|)) (* 3.0 |v0:17|)) (* (- 13.0) |v12:5|)) ?x194)))
 (let ((?x887 (- 16.0)))
 (let ((?x3500 (* 5.0 |v14:3|)))
 (let (($x2872 (<= (+ (+ (+ (* ?x1680 |v12:5|) (* (- 18.0) |v17:0|)) (* ?x194 |v4:13|)) ?x3500) ?x887)))
 (let ((?x523 (* 15.0 |v15:2|)))
 (let (($x3232 (<= (+ (+ (+ (* (- 20.0) |v5:12|) ?x651) (* 18.0 |v15:2|)) ?x523) ?x2834)))
 (let ((?x2720 (+ (+ (+ (* (- 3.0) |v17:0|) (* 14.0 |v13:4|)) (* (- 14.0) |v13:4|)) (* ?x2313 ?x1415))))
 (let ((?x2363 (* 18.0 |v5:12|)))
 (let ((?x935 (+ (+ (* ?x2304 |v1:16|) (* (- 9.0) |v0:17|)) ?x2363)))
 (let (($x3403 (<= (+ (+ (+ ?x3424 (* ?x2834 |v14:3|)) (* ?x194 |v0:17|)) (* (- 3.0) |v5:12|)) ?x2870)))
 (let (($x2092 (and (and $x3403 (<= (+ ?x935 (* (- 7.0) |v12:5|)) 0.0)) (and (<= ?x2720 5.0) $x3232))))
 (let (($x2321 (and (or $x2092 (or (and $x2872 $x3233) (and (<= ?x344 ?x2555) $x948))) (or $x1260 $x1360))))
 (let ((?x3015 (+ (+ (+ (* ?x2870 ?x692) (* 3.0 ?x1415)) (* (- 18.0) ?x2163)) (* 0.0 (rval2 |v10:7_st|)))))
 (let ((?x276 (* ?x2517 |v16:1|)))
 (let (($x1951 (<= (+ (+ (+ (* 8.0 |v0:17|) (* 6.0 ?x2163)) (* 2.0 ?x692)) ?x276) ?x2870)))
 (let (($x459 (<= (+ (+ (+ |v5:12| (* ?x2313 |v5:12|)) (* 2.0 |v2:15|)) (* ?x2870 ?x692)) 17.0)))
 (let ((?x1473 (* 16.0 ?x651)))
 (let (($x245 (<= (+ (+ (+ (* ?x3213 ?x651) (* ?x887 |v14:3|)) (* ?x194 |v5:12|)) ?x1473) 15.0)))
 (let ((?x2832 (* 4.0 |v12:5|)))
 (let (($x647 (<= (+ (+ (+ (* 7.0 |v12:5|) (* (- 13.0) (rval2 |v10:7_st|))) ?x3500) ?x2832) 17.0)))
 (let ((?x1020 (+ (+ (+ (* ?x194 |v1:16|) (* 16.0 |v15:2|)) (* ?x2304 |v1:16|)) (* ?x194 |v12:5|))))
 (let ((?x1709 (* 9.0 |v15:2|)))
 (let (($x1294 (<= (+ (+ (+ (* (- 9.0) |v12:5|) (* 18.0 |v16:1|)) (* ?x1680 |v13:4|)) ?x1709) ?x887)))
 (let ((?x1503 (+ (+ (+ (* (- 7.0) |v0:17|) (* 8.0 |v5:12|)) (* 16.0 |v1:16|)) (* ?x8 |v4:13|))))
 (let (($x472 (<= ?x1503 ?x8)))
 (let (($x1626 (or (or (or $x472 $x1294) (or (<= ?x1020 ?x2834) $x647)) (and (or $x245 $x459) (or $x1951 (<= ?x3015 13.0))))))
 (let ((?x1239 (- 7.0)))
 (let ((?x3458 (* ?x1239 |v4:13|)))
 (let ((?x1860 (- 13.0)))
 (let ((?x3370 (+ (+ (+ (* ?x2870 |v2:15|) (* ?x2517 |v5:12|)) (* 12.0 ?x1415)) (* ?x1860 |v13:4|))))
 (let ((?x3018 (+ (+ (+ ?x1745 (* ?x2834 |v13:4|)) (* ?x3213 ?x1415)) (* 15.0 (rval2 |v10:7_st|)))))
 (let ((?x231 (* ?x887 |v1:16|)))
 (let ((?x2741 (- 3.0)))
 (let ((?x2785 (* ?x2741 |v3:14|)))
 (let (($x348 (<= (+ (+ (+ (* ?x2741 |v15:2|) (* (- 14.0) |v17:0|)) ?x2785) ?x231) 11.0)))
 (let (($x393 (or (<= (+ (+ (+ ?x473 (* 3.0 |v3:14|)) ?x1242) (* 12.0 |v2:15|)) ?x8) $x348)))
 (let (($x2765 (and (and $x393 (and (<= ?x3018 ?x8) (<= ?x3370 ?x1860))) (<= (+ (+ (+ (* 19.0 ?x2163) (* 6.0 |v2:15|)) ?x668) ?x3458) 5.0))))
 (let ((?x1331 (* 11.0 ?x473)))
 (let ((?x2065 (+ (+ (+ (* 17.0 |v2:15|) (* ?x1860 ?x1415)) (* 14.0 (rval2 |v10:7_st|))) ?x1331)))
 (let ((?x2053 (- 18.0)))
 (let ((?x2604 (* ?x2053 |v5:12|)))
 (let (($x3386 (<= (+ (+ (+ (* 16.0 |v12:5|) (* 16.0 |v12:5|)) (* 0.0 |v15:2|)) ?x2604) ?x2517)))
 (let ((?x3256 (* ?x2053 |v2:15|)))
 (let (($x1150 (<= (+ (+ (+ (* ?x2555 ?x1415) (* ?x2834 ?x1415)) (* 18.0 |v13:4|)) ?x3256) ?x1680)))
 (let ((?x971 (+ (+ (+ (* 7.0 |v1:16|) ?x692) (* 17.0 |v3:14|)) (* (- 14.0) |v14:3|))))
 (let ((?x3158 (* ?x2304 |v2:15|)))
 (let (($x3040 (<= (+ (+ (+ (* ?x1680 |v15:2|) (* 18.0 |v1:16|)) (* ?x2555 |v4:13|)) ?x3158) ?x2870)))
 (let ((?x2035 (* 15.0 |v16:1|)))
 (let (($x1583 (<= (+ (+ (+ (* 13.0 ?x2163) (* ?x1239 |v0:17|)) (* 3.0 |v2:15|)) ?x2035) 8.0)))
 (let ((?x536 (* 18.0 |v17:0|)))
 (let (($x2229 (<= (+ (+ (+ (* 15.0 ?x1415) (* 8.0 ?x692)) (* 5.0 |v4:13|)) ?x536) 3.0)))
 (let (($x2365 (or (or $x2229 (and $x1583 $x3040)) (or (or (<= ?x971 16.0) $x1150) (and $x3386 (<= ?x2065 ?x1680))))))
 (let ((?x3463 (+ (+ (+ (* 7.0 |v12:5|) (* 14.0 |v12:5|)) (* (- 20.0) ?x692)) (* ?x887 ?x651))))
 (let ((?x2572 (* 0.0 |v1:16|)))
 (let (($x2728 (<= (+ (+ (+ (* ?x887 |v13:4|) (* 9.0 ?x1415)) (* ?x8 |v1:16|)) ?x2572) 13.0)))
 (let (($x1726 (<= (+ (+ (+ (* 11.0 |v4:13|) (* ?x2304 |v3:14|)) ?x536) (* ?x194 ?x473)) 9.0)))
 (let (($x1302 (<= (+ (+ (+ (* ?x194 |v16:1|) (* 11.0 |v1:16|)) ?x2832) (* ?x887 ?x2163)) 11.0)))
 (let ((?x122 (+ (+ (+ (* 14.0 |v14:3|) (* 7.0 ?x2163)) (* 5.0 |v17:0|)) (* (- 14.0) |v12:5|))))
 (let ((?x1601 (+ (+ (+ (* 12.0 |v3:14|) (* 6.0 ?x2163)) (* 5.0 ?x1415)) (* ?x887 |v12:5|))))
 (let ((?x197 (- 20.0)))
 (let ((?x1406 (* 16.0 |v2:15|)))
 (let ((?x2257 (+ (+ (+ (* 3.0 (rval2 |v10:7_st|)) (* 4.0 |v16:1|)) (* 14.0 |v5:12|)) ?x1406)))
 (let ((?x343 (+ (+ (+ (* 12.0 |v17:0|) (* ?x3213 |v1:16|)) (* 9.0 |v2:15|)) (* ?x2304 ?x651))))
 (let (($x1531 (and (or (<= ?x343 13.0) (<= ?x2257 ?x197)) (or (<= ?x1601 ?x2834) (<= ?x122 1.0)))))
 (let (($x1864 (and (or (or $x1531 (or (or $x1302 $x1726) (or $x2728 (<= ?x3463 12.0)))) $x2365) (or $x2765 $x1626))))
 (let (($x785 (not (= |v6:11_st| (RMk1 val!7139)))))
 (let (($x1017 (not (= |v7:10_st| (RMk1 val!7138)))))
 (let (($x2912 (not (= |v8:9_st| (RMk1 val!7137)))))
 (let (($x2702 (not (= |v9:8_st| (RMk1 val!7136)))))
 (let (($x1978 (not (= |v10:7_st| (RMk1 val!7135)))))
 (let (($x891 (not (= |v11:6_st| (RMk1 val!7134)))))
 (and $x891 $x1978 $x2702 $x2912 $x1017 $x785 (or $x1864 (or $x2321 $x3462))))))))))))))))))))))))))))))))))))))))))))))))))))))))))))))))))))))))))))))))))))))))))))))))))))))))))))))))))))))))))))))))))))))))))))
 )
 )
 )
 )
 )
 )
 )
 )
 )
 )
 )
 )
 )
 )
 )
 )
 )
 )
(check-sat)
